17748
101001001001001001001000110100
20 11 14 17 17 5 2 24 8 17 25 8 14 20 27 14 17 0 27 11 2 0 5 17 5 8 17 24 24 24 5 11 20 25 20 20 24 24 17 14 0 14 24 17 24 14 14 20 27 8 11 14 14 5 20 8 17 27 27 14 0 5 20 25 11 25 24 0 5 27 8 8 25 17 24 8 25 20 17 11 20 0 8 17 0 17 2 0 20 5 2 5 0 0 0 24 2 14 27 8 14 25 17 11 0 11 17 0 14 8 14 2 2 11 11 27 24 24 24 5 5 8 25 8 14 17 5 25 2 27 0 11 24 24 20 17 0 11 14 17 0 14 20 14 8 0 25 5 2 5 